This is MiniSat 2.0 beta
============================[ Problem Statistics ]=============================
|                                                                             |
|  Number of variables:  128                                                  |
|  Number of clauses:    129                                                  |
|  Parsing time:         0.00         s                                       |
Solved by unit propagation
